8,2	0,0	10,4	18,8	0,0	0,0	0,0	0,0	0,0	19,1
12,3	11,8	0,0	12,7	19,8	0,0	0,0	11,9	0,0	0,0
0,0	0,0	9,0	0,0	15,0	11,1	0,0	0,0	18,9	0,0
19,9	0,0	19,5	0,0	0,0	0,0	8,7	0,0	0,0	0,0
0,0	5,6	0,0	6,2	6,9	0,0	0,0	9,8	0,0	0,0
0,0	8,6	7,8	0,0	16,0	19,2	0,0	0,0	18,9	0,0
0,0	12,9	0,0	18,1	0,0	0,0	12,4	0,0	0,0	15,2
15,1	0,0	17,2	0,0	0,0	0,0	0,0	0,0	0,0	6,0
0,0	8,9	0,0	15,5	18,3	0,0	0,0	17,2	0,0	0,0
0,0	0,0	19,6	0,0	0,0	11,5	12,9	0,0	0,0	17,4
									
2,6	4,4	4,7	3,5	4,7	4,1	4,6	4,1	3,9	3,4
